(set-logic HORN)

(declare-fun __VERIFIER_assert (Int) Bool)
(declare-fun $main_sum224 (Int Int Int Int Int Int Int Int Int Int Int Int Int Int Int Int Int Int Int Int Int Int) Bool)
(declare-fun $main_if655 (Int Int Int Int Int Int Int Int Int Int Int Int Int Int Int Int Int Int Int Int Int Int) Bool)
(declare-fun $main_if654 (Int Int Int Int Int Int Int Int Int Int Int Int Int Int Int Int Int Int Int Int Int Int) Bool)
(declare-fun $__VERIFIER_assert_ERROR (Int Int) Bool)
(declare-fun $main_if652 (Int Int Int Int Int Int Int Int Int Int Int Int Int Int Int Int Int Int Int Int Int Int) Bool)
(declare-fun $main_if659 (Int Int Int Int Int Int Int Int Int Int Int Int Int Int Int Int Int Int Int Int Int Int) Bool)
(declare-fun $main_inv224 (Int Int Int Int Int Int Int Int Int Int Int) Bool)
(declare-fun $assume_abort_if_not_pre (Int) Bool)
(declare-fun $main_if657 (Int Int Int Int Int Int Int Int Int Int Int Int Int Int Int Int Int Int Int Int Int Int) Bool)
(declare-fun $main_if658 (Int Int Int Int Int Int Int Int Int Int Int Int Int Int Int Int Int Int Int Int Int Int) Bool)
(declare-fun $main_if651 (Int Int Int Int Int Int Int Int Int Int Int Int Int Int Int Int Int Int Int Int Int Int) Bool)
(declare-fun $main_if653 (Int Int Int Int Int Int Int Int Int Int Int Int Int Int Int Int Int Int Int Int Int Int) Bool)
(declare-fun $__VERIFIER_assert_pre (Int) Bool)
(declare-fun $main_if656 (Int Int Int Int Int Int Int Int Int Int Int Int Int Int Int Int Int Int Int Int Int Int) Bool)
(declare-fun assume_abort_if_not (Int) Bool)
(declare-fun $assume_abort_if_not_if649 (Int Int) Bool)
(declare-fun $__VERIFIER_assert_if650 (Int Int) Bool)

; if else
(assert
  (forall ((cond Int))
    (=> (and (not (= cond 0))
             ($assume_abort_if_not_pre cond))
        ($assume_abort_if_not_if649 cond cond))))

; post assume_abort_if_not
(assert
  (forall ((cond15642 Int) (cond Int))
    (=> (and ($assume_abort_if_not_if649 cond cond15642))
        (assume_abort_if_not cond15642))))

; label ERROR
(assert
  (forall ((cond Int))
    (=> (and (= cond 0)
             ($__VERIFIER_assert_pre cond))
        ($__VERIFIER_assert_ERROR cond cond))))

; error
(assert
  (forall ((cond Int) (cond15643 Int))
    (=> (and ($__VERIFIER_assert_ERROR cond cond15643))
        false)))

; if else
(assert
  (forall ((cond Int))
    (=> (and (not (= cond 0))
             ($__VERIFIER_assert_pre cond))
        ($__VERIFIER_assert_if650 cond cond))))

; post __VERIFIER_assert
(assert
  (forall ((cond15644 Int) (cond Int))
    (=> (and ($__VERIFIER_assert_if650 cond cond15644))
        (__VERIFIER_assert cond15644))))

; if else
(assert
  (forall (($v2647 Int) ($v6651 Int) ($v5650 Int) ($v3648 Int) ($v1646 Int) ($j644 Int) ($i642 Int) ($v4649 Int) ($n641 Int) ($k643 Int) ($l645 Int) ($int15646 Int))
    (=> (and (<= $int15646 20000001)
             (<= (- 2147483648) $int15646)
             (<= $int15646 2147483647)
             (= $v6651 0)
             (= $v5650 0)
             (= $v4649 0)
             (= $v3648 0)
             (= $v2647 0)
             (= $v1646 0)
             (= $l645 0)
             (= $j644 0)
             (= $k643 0)
             (= $i642 0)
             (= $n641 0))
        ($main_if651 $n641 $i642 $k643 $j644 $l645 $v1646 $v2647 $v3648 $v4649 $v5650 $v6651 $int15646 $i642 $k643 $j644 $l645 $v1646 $v2647 $v3648 $v4649 $v5650 $v6651))))

; loop entry $main_inv224
(assert
  (forall (($v2647 Int) ($v6651 Int) ($v5650 Int) ($v3648 Int) ($v1646 Int) ($v665115657 Int) ($i642 Int) ($v4649 Int) ($n641 Int) ($k643 Int) ($j64415650 Int) ($i64215648 Int) ($v164615652 Int) ($v264715653 Int) ($v364815654 Int) ($k64315649 Int) ($l645 Int) ($v565015656 Int) ($j644 Int) ($n64115647 Int) ($v464915655 Int) ($l64515651 Int))
    (=> (and ($main_if651 $n641 $i642 $k643 $j644 $l645 $v1646 $v2647 $v3648 $v4649 $v5650 $v6651 $n64115647 $i64215648 $k64315649 $j64415650 $l64515651 $v164615652 $v264715653 $v364815654 $v464915655 $v565015656 $v665115657))
        ($main_inv224 $n64115647 $i64215648 $k64315649 $j64415650 $l64515651 $v164615652 $v264715653 $v364815654 $v464915655 $v565015656 $v665115657))))

; loop term $main_sum224
(assert
  (forall (($v164615663 Int) ($n64115658 Int) ($v264715664 Int) ($v364815665 Int) ($v464915666 Int) ($l64515662 Int) ($i64215659 Int) ($k64315660 Int) ($v565015667 Int) ($v665115668 Int) ($j64415661 Int))
    (=> (and (not (< $l64515662 $n64115658)))
        ($main_sum224 $n64115658 $i64215659 $k64315660 $j64415661 $l64515662 $v164615663 $v264715664 $v364815665 $v464915666 $v565015667 $v665115668 $n64115658 $i64215659 $k64315660 $j64415661 $l64515662 $v164615663 $v264715664 $v364815665 $v464915666 $v565015667 $v665115668))))

; if then
(assert
  (forall (($v164615663 Int) ($n64115658 Int) ($v264715664 Int) ($v364815665 Int) ($v464915666 Int) ($l64515662 Int) ($i64215659 Int) ($k64315660 Int) ($v565015667 Int) ($v665115668 Int) ($j64415661 Int))
    (=> (and (= (mod $l64515662 2) 0)
             (not (= (mod $l64515662 3) 0))
             (not (= (mod $l64515662 4) 0))
             (not (= (mod $l64515662 5) 0))
             (not (= (mod $l64515662 6) 0))
             (not (= (mod $l64515662 7) 0))
             (not (= (mod $l64515662 8) 0))
             (not (= (mod $l64515662 9) 0))
             (< $l64515662 $n64115658)
             ($main_inv224 $n64115658 $i64215659 $k64315660 $j64415661 $l64515662 $v164615663 $v264715664 $v364815665 $v464915666 $v565015667 $v665115668))
        ($main_if652 $n64115658 $i64215659 $k64315660 $j64415661 $l64515662 $v164615663 $v264715664 $v364815665 $v464915666 $v565015667 $v665115668 $n64115658 $i64215659 $k64315660 (+ $j64415661 1) $l64515662 $v164615663 $v264715664 $v364815665 $v464915666 $v565015667 $v665115668))))

; if else
(assert
  (forall (($v164615663 Int) ($n64115658 Int) ($v264715664 Int) ($v364815665 Int) ($v464915666 Int) ($l64515662 Int) ($i64215659 Int) ($k64315660 Int) ($v565015667 Int) ($v665115668 Int) ($j64415661 Int))
    (=> (and (not (= (mod $l64515662 2) 0))
             (not (= (mod $l64515662 3) 0))
             (not (= (mod $l64515662 4) 0))
             (not (= (mod $l64515662 5) 0))
             (not (= (mod $l64515662 6) 0))
             (not (= (mod $l64515662 7) 0))
             (not (= (mod $l64515662 8) 0))
             (not (= (mod $l64515662 9) 0))
             (< $l64515662 $n64115658)
             ($main_inv224 $n64115658 $i64215659 $k64315660 $j64415661 $l64515662 $v164615663 $v264715664 $v364815665 $v464915666 $v565015667 $v665115668))
        ($main_if652 $n64115658 $i64215659 $k64315660 $j64415661 $l64515662 $v164615663 $v264715664 $v364815665 $v464915666 $v565015667 $v665115668 $n64115658 $i64215659 (+ $k64315660 1) $j64415661 $l64515662 $v164615663 $v264715664 $v364815665 $v464915666 $v565015667 $v665115668))))

; if then
(assert
  (forall (($v164615663 Int) ($n64115658 Int) ($v264715664 Int) ($v364815665 Int) ($v464915666 Int) ($l64515662 Int) ($i64215659 Int) ($k64315660 Int) ($v565015667 Int) ($v665115668 Int) ($j64415661 Int))
    (=> (and (= (mod $l64515662 3) 0)
             (not (= (mod $l64515662 4) 0))
             (not (= (mod $l64515662 5) 0))
             (not (= (mod $l64515662 6) 0))
             (not (= (mod $l64515662 7) 0))
             (not (= (mod $l64515662 8) 0))
             (not (= (mod $l64515662 9) 0))
             (< $l64515662 $n64115658)
             ($main_inv224 $n64115658 $i64215659 $k64315660 $j64415661 $l64515662 $v164615663 $v264715664 $v364815665 $v464915666 $v565015667 $v665115668))
        ($main_if653 $n64115658 $i64215659 $k64315660 $j64415661 $l64515662 $v164615663 $v264715664 $v364815665 $v464915666 $v565015667 $v665115668 $n64115658 (+ $i64215659 1) $k64315660 $j64415661 $l64515662 $v164615663 $v264715664 $v364815665 $v464915666 $v565015667 $v665115668))))

; if else
(assert
  (forall (($n64115658 Int) ($v264715664 Int) ($l64515673 Int) ($v364815665 Int) ($v565015678 Int) ($v464915666 Int) ($k64315671 Int) ($i64215659 Int) ($v164615674 Int) ($k64315660 Int) ($v565015667 Int) ($v164615663 Int) ($v364815676 Int) ($j64415672 Int) ($v665115679 Int) ($v264715675 Int) ($n64115669 Int) ($l64515662 Int) ($v665115668 Int) ($j64415661 Int) ($i64215670 Int) ($v464915677 Int))
    (=> (and ($main_if652 $n64115658 $i64215659 $k64315660 $j64415661 $l64515662 $v164615663 $v264715664 $v364815665 $v464915666 $v565015667 $v665115668 $n64115669 $i64215670 $k64315671 $j64415672 $l64515673 $v164615674 $v264715675 $v364815676 $v464915677 $v565015678 $v665115679))
        ($main_if653 $n64115658 $i64215659 $k64315660 $j64415661 $l64515662 $v164615663 $v264715664 $v364815665 $v464915666 $v565015667 $v665115668 $n64115669 $i64215670 $k64315671 $j64415672 $l64515673 $v164615674 $v264715675 $v364815676 $v464915677 $v565015678 $v665115679))))

; if then
(assert
  (forall (($v164615663 Int) ($n64115658 Int) ($v264715664 Int) ($v364815665 Int) ($v464915666 Int) ($l64515662 Int) ($i64215659 Int) ($k64315660 Int) ($v565015667 Int) ($v665115668 Int) ($j64415661 Int))
    (=> (and (= (mod $l64515662 4) 0)
             (not (= (mod $l64515662 5) 0))
             (not (= (mod $l64515662 6) 0))
             (not (= (mod $l64515662 7) 0))
             (not (= (mod $l64515662 8) 0))
             (not (= (mod $l64515662 9) 0))
             (< $l64515662 $n64115658)
             ($main_inv224 $n64115658 $i64215659 $k64315660 $j64415661 $l64515662 $v164615663 $v264715664 $v364815665 $v464915666 $v565015667 $v665115668))
        ($main_if654 $n64115658 $i64215659 $k64315660 $j64415661 $l64515662 $v164615663 $v264715664 $v364815665 $v464915666 $v565015667 $v665115668 $n64115658 $i64215659 $k64315660 $j64415661 $l64515662 $v164615663 $v264715664 $v364815665 (+ $v464915666 1) $v565015667 $v665115668))))

; if else
(assert
  (forall (($v264715664 Int) ($v164615685 Int) ($v364815687 Int) ($l64515662 Int) ($v464915688 Int) ($i64215659 Int) ($v565015667 Int) ($v164615663 Int) ($k64315682 Int) ($i64215681 Int) ($n64115658 Int) ($v264715686 Int) ($j64415683 Int) ($v364815665 Int) ($l64515684 Int) ($v464915666 Int) ($v665115668 Int) ($j64415661 Int) ($n64115680 Int) ($v665115690 Int) ($k64315660 Int) ($v565015689 Int))
    (=> (and ($main_if653 $n64115658 $i64215659 $k64315660 $j64415661 $l64515662 $v164615663 $v264715664 $v364815665 $v464915666 $v565015667 $v665115668 $n64115680 $i64215681 $k64315682 $j64415683 $l64515684 $v164615685 $v264715686 $v364815687 $v464915688 $v565015689 $v665115690))
        ($main_if654 $n64115658 $i64215659 $k64315660 $j64415661 $l64515662 $v164615663 $v264715664 $v364815665 $v464915666 $v565015667 $v665115668 $n64115680 $i64215681 $k64315682 $j64415683 $l64515684 $v164615685 $v264715686 $v364815687 $v464915688 $v565015689 $v665115690))))

; if then
(assert
  (forall (($v164615663 Int) ($n64115658 Int) ($v264715664 Int) ($v364815665 Int) ($v464915666 Int) ($l64515662 Int) ($i64215659 Int) ($k64315660 Int) ($v565015667 Int) ($v665115668 Int) ($j64415661 Int))
    (=> (and (= (mod $l64515662 5) 0)
             (not (= (mod $l64515662 6) 0))
             (not (= (mod $l64515662 7) 0))
             (not (= (mod $l64515662 8) 0))
             (not (= (mod $l64515662 9) 0))
             (< $l64515662 $n64115658)
             ($main_inv224 $n64115658 $i64215659 $k64315660 $j64415661 $l64515662 $v164615663 $v264715664 $v364815665 $v464915666 $v565015667 $v665115668))
        ($main_if655 $n64115658 $i64215659 $k64315660 $j64415661 $l64515662 $v164615663 $v264715664 $v364815665 $v464915666 $v565015667 $v665115668 $n64115658 $i64215659 $k64315660 $j64415661 $l64515662 $v164615663 $v264715664 (+ $v364815665 1) $v464915666 $v565015667 $v665115668))))

; if else
(assert
  (forall (($n64115658 Int) ($v264715664 Int) ($v364815665 Int) ($j64415694 Int) ($v364815698 Int) ($k64315693 Int) ($l64515662 Int) ($k64315660 Int) ($v565015667 Int) ($l64515695 Int) ($v264715697 Int) ($v164615663 Int) ($v565015700 Int) ($v464915666 Int) ($i64215692 Int) ($v665115668 Int) ($j64415661 Int) ($i64215659 Int) ($v464915699 Int) ($v164615696 Int) ($n64115691 Int) ($v665115701 Int))
    (=> (and ($main_if654 $n64115658 $i64215659 $k64315660 $j64415661 $l64515662 $v164615663 $v264715664 $v364815665 $v464915666 $v565015667 $v665115668 $n64115691 $i64215692 $k64315693 $j64415694 $l64515695 $v164615696 $v264715697 $v364815698 $v464915699 $v565015700 $v665115701))
        ($main_if655 $n64115658 $i64215659 $k64315660 $j64415661 $l64515662 $v164615663 $v264715664 $v364815665 $v464915666 $v565015667 $v665115668 $n64115691 $i64215692 $k64315693 $j64415694 $l64515695 $v164615696 $v264715697 $v364815698 $v464915699 $v565015700 $v665115701))))

; if then
(assert
  (forall (($v164615663 Int) ($n64115658 Int) ($v264715664 Int) ($v364815665 Int) ($v464915666 Int) ($l64515662 Int) ($i64215659 Int) ($k64315660 Int) ($v565015667 Int) ($v665115668 Int) ($j64415661 Int))
    (=> (and (= (mod $l64515662 6) 0)
             (not (= (mod $l64515662 7) 0))
             (not (= (mod $l64515662 8) 0))
             (not (= (mod $l64515662 9) 0))
             (< $l64515662 $n64115658)
             ($main_inv224 $n64115658 $i64215659 $k64315660 $j64415661 $l64515662 $v164615663 $v264715664 $v364815665 $v464915666 $v565015667 $v665115668))
        ($main_if656 $n64115658 $i64215659 $k64315660 $j64415661 $l64515662 $v164615663 $v264715664 $v364815665 $v464915666 $v565015667 $v665115668 $n64115658 $i64215659 $k64315660 $j64415661 $l64515662 $v164615663 (+ $v264715664 1) $v364815665 $v464915666 $v565015667 $v665115668))))

; if else
(assert
  (forall (($v164615663 Int) ($n64115658 Int) ($v264715664 Int) ($v164615707 Int) ($v364815665 Int) ($v464915666 Int) ($j64415705 Int) ($k64315704 Int) ($l64515706 Int) ($v264715708 Int) ($i64215659 Int) ($v364815709 Int) ($v565015667 Int) ($i64215703 Int) ($v565015711 Int) ($n64115702 Int) ($l64515662 Int) ($v665115668 Int) ($v464915710 Int) ($j64415661 Int) ($v665115712 Int) ($k64315660 Int))
    (=> (and ($main_if655 $n64115658 $i64215659 $k64315660 $j64415661 $l64515662 $v164615663 $v264715664 $v364815665 $v464915666 $v565015667 $v665115668 $n64115702 $i64215703 $k64315704 $j64415705 $l64515706 $v164615707 $v264715708 $v364815709 $v464915710 $v565015711 $v665115712))
        ($main_if656 $n64115658 $i64215659 $k64315660 $j64415661 $l64515662 $v164615663 $v264715664 $v364815665 $v464915666 $v565015667 $v665115668 $n64115702 $i64215703 $k64315704 $j64415705 $l64515706 $v164615707 $v264715708 $v364815709 $v464915710 $v565015711 $v665115712))))

; if then
(assert
  (forall (($v164615663 Int) ($n64115658 Int) ($v264715664 Int) ($v364815665 Int) ($v464915666 Int) ($l64515662 Int) ($i64215659 Int) ($k64315660 Int) ($v565015667 Int) ($v665115668 Int) ($j64415661 Int))
    (=> (and (= (mod $l64515662 7) 0)
             (not (= (mod $l64515662 8) 0))
             (not (= (mod $l64515662 9) 0))
             (< $l64515662 $n64115658)
             ($main_inv224 $n64115658 $i64215659 $k64315660 $j64415661 $l64515662 $v164615663 $v264715664 $v364815665 $v464915666 $v565015667 $v665115668))
        ($main_if657 $n64115658 $i64215659 $k64315660 $j64415661 $l64515662 $v164615663 $v264715664 $v364815665 $v464915666 $v565015667 $v665115668 $n64115658 $i64215659 $k64315660 $j64415661 $l64515662 (+ $v164615663 1) $v264715664 $v364815665 $v464915666 $v565015667 $v665115668))))

; if else
(assert
  (forall (($v164615663 Int) ($v264715664 Int) ($v565015722 Int) ($k64315715 Int) ($v264715719 Int) ($l64515717 Int) ($v464915666 Int) ($j64415716 Int) ($v164615718 Int) ($i64215659 Int) ($k64315660 Int) ($v565015667 Int) ($v464915721 Int) ($v665115723 Int) ($i64215714 Int) ($n64115658 Int) ($n64115713 Int) ($v364815665 Int) ($v364815720 Int) ($l64515662 Int) ($v665115668 Int) ($j64415661 Int))
    (=> (and ($main_if656 $n64115658 $i64215659 $k64315660 $j64415661 $l64515662 $v164615663 $v264715664 $v364815665 $v464915666 $v565015667 $v665115668 $n64115713 $i64215714 $k64315715 $j64415716 $l64515717 $v164615718 $v264715719 $v364815720 $v464915721 $v565015722 $v665115723))
        ($main_if657 $n64115658 $i64215659 $k64315660 $j64415661 $l64515662 $v164615663 $v264715664 $v364815665 $v464915666 $v565015667 $v665115668 $n64115713 $i64215714 $k64315715 $j64415716 $l64515717 $v164615718 $v264715719 $v364815720 $v464915721 $v565015722 $v665115723))))

; if then
(assert
  (forall (($v164615663 Int) ($n64115658 Int) ($v264715664 Int) ($v364815665 Int) ($v464915666 Int) ($l64515662 Int) ($i64215659 Int) ($k64315660 Int) ($v565015667 Int) ($v665115668 Int) ($j64415661 Int))
    (=> (and (= (mod $l64515662 8) 0)
             (not (= (mod $l64515662 9) 0))
             (< $l64515662 $n64115658)
             ($main_inv224 $n64115658 $i64215659 $k64315660 $j64415661 $l64515662 $v164615663 $v264715664 $v364815665 $v464915666 $v565015667 $v665115668))
        ($main_if658 $n64115658 $i64215659 $k64315660 $j64415661 $l64515662 $v164615663 $v264715664 $v364815665 $v464915666 $v565015667 $v665115668 $n64115658 $i64215659 $k64315660 $j64415661 $l64515662 $v164615663 $v264715664 $v364815665 $v464915666 (+ $v565015667 1) $v665115668))))

; if else
(assert
  (forall (($n64115658 Int) ($l64515728 Int) ($v464915666 Int) ($v264715730 Int) ($v364815731 Int) ($k64315660 Int) ($v565015667 Int) ($k64315726 Int) ($v164615663 Int) ($v464915732 Int) ($n64115724 Int) ($v164615729 Int) ($v264715664 Int) ($v565015733 Int) ($v364815665 Int) ($l64515662 Int) ($v665115734 Int) ($v665115668 Int) ($j64415661 Int) ($j64415727 Int) ($i64215659 Int) ($i64215725 Int))
    (=> (and ($main_if657 $n64115658 $i64215659 $k64315660 $j64415661 $l64515662 $v164615663 $v264715664 $v364815665 $v464915666 $v565015667 $v665115668 $n64115724 $i64215725 $k64315726 $j64415727 $l64515728 $v164615729 $v264715730 $v364815731 $v464915732 $v565015733 $v665115734))
        ($main_if658 $n64115658 $i64215659 $k64315660 $j64415661 $l64515662 $v164615663 $v264715664 $v364815665 $v464915666 $v565015667 $v665115668 $n64115724 $i64215725 $k64315726 $j64415727 $l64515728 $v164615729 $v264715730 $v364815731 $v464915732 $v565015733 $v665115734))))

; if then
(assert
  (forall (($v164615663 Int) ($n64115658 Int) ($v264715664 Int) ($v364815665 Int) ($v464915666 Int) ($l64515662 Int) ($i64215659 Int) ($k64315660 Int) ($v565015667 Int) ($v665115668 Int) ($j64415661 Int))
    (=> (and (= (mod $l64515662 9) 0)
             (< $l64515662 $n64115658)
             ($main_inv224 $n64115658 $i64215659 $k64315660 $j64415661 $l64515662 $v164615663 $v264715664 $v364815665 $v464915666 $v565015667 $v665115668))
        ($main_if659 $n64115658 $i64215659 $k64315660 $j64415661 $l64515662 $v164615663 $v264715664 $v364815665 $v464915666 $v565015667 $v665115668 $n64115658 $i64215659 $k64315660 $j64415661 $l64515662 $v164615663 $v264715664 $v364815665 $v464915666 $v565015667 (+ $v665115668 1)))))

; if else
(assert
  (forall (($v164615663 Int) ($n64115658 Int) ($n64115735 Int) ($l64515739 Int) ($v364815665 Int) ($v264715741 Int) ($v464915666 Int) ($j64415738 Int) ($l64515662 Int) ($v364815742 Int) ($i64215659 Int) ($k64315660 Int) ($v164615740 Int) ($k64315737 Int) ($i64215736 Int) ($v565015744 Int) ($v665115745 Int) ($v264715664 Int) ($v665115668 Int) ($j64415661 Int) ($v565015667 Int) ($v464915743 Int))
    (=> (and ($main_if658 $n64115658 $i64215659 $k64315660 $j64415661 $l64515662 $v164615663 $v264715664 $v364815665 $v464915666 $v565015667 $v665115668 $n64115735 $i64215736 $k64315737 $j64415738 $l64515739 $v164615740 $v264715741 $v364815742 $v464915743 $v565015744 $v665115745))
        ($main_if659 $n64115658 $i64215659 $k64315660 $j64415661 $l64515662 $v164615663 $v264715664 $v364815665 $v464915666 $v565015667 $v665115668 $n64115735 $i64215736 $k64315737 $j64415738 $l64515739 $v164615740 $v264715741 $v364815742 $v464915743 $v565015744 $v665115745))))

; __VERIFIER_assert precondition
(assert
  (forall (($v164615663 Int) ($n64115658 Int) ($v264715664 Int) ($v364815665 Int) ($v464915666 Int) ($i64215747 Int) ($l64515662 Int) ($l64515750 Int) ($k64315660 Int) ($v565015667 Int) ($v364815753 Int) ($j64415749 Int) ($v264715752 Int) ($v565015755 Int) ($v665115668 Int) ($j64415661 Int) ($v464915754 Int) ($i64215659 Int) ($v164615751 Int) ($v665115756 Int) ($k64315748 Int) ($n64115746 Int))
    (=> (and ($main_if659 $n64115658 $i64215659 $k64315660 $j64415661 $l64515662 $v164615663 $v264715664 $v364815665 $v464915666 $v565015667 $v665115668 $n64115746 $i64215747 $k64315748 $j64415749 $l64515750 $v164615751 $v264715752 $v364815753 $v464915754 $v565015755 $v665115756))
        ($__VERIFIER_assert_pre (ite (= (+ (+ (+ (+ (+ (+ (+ (+ $i64215747 $j64415749) $k64315748) $v164615751) $v264715752) $v364815753) $v464915754) $v565015755) $v665115756) (+ $l64515750 1)) 1 0)))))

; forwards $main_inv224
(assert
  (forall (($v164615663 Int) ($n64115658 Int) ($v264715664 Int) ($v364815665 Int) ($v464915666 Int) ($i64215747 Int) ($l64515662 Int) ($l64515750 Int) ($k64315660 Int) ($v565015667 Int) ($v364815753 Int) ($j64415749 Int) ($v264715752 Int) ($v565015755 Int) ($v665115668 Int) ($j64415661 Int) ($v464915754 Int) ($i64215659 Int) ($v164615751 Int) ($v665115756 Int) ($k64315748 Int) ($n64115746 Int))
    (=> (and (__VERIFIER_assert (ite (= (+ (+ (+ (+ (+ (+ (+ (+ $i64215747 $j64415749) $k64315748) $v164615751) $v264715752) $v364815753) $v464915754) $v565015755) $v665115756) (+ $l64515750 1)) 1 0))
             ($main_if659 $n64115658 $i64215659 $k64315660 $j64415661 $l64515662 $v164615663 $v264715664 $v364815665 $v464915666 $v565015667 $v665115668 $n64115746 $i64215747 $k64315748 $j64415749 $l64515750 $v164615751 $v264715752 $v364815753 $v464915754 $v565015755 $v665115756))
        ($main_inv224 $n64115746 $i64215747 $k64315748 $j64415749 (+ $l64515750 1) $v164615751 $v264715752 $v364815753 $v464915754 $v565015755 $v665115756))))

; backwards $main_sum224
(assert
  (forall (($v164615663 Int) ($n64115658 Int) ($v264715664 Int) ($v364815665 Int) ($l64515761 Int) ($v565015766 Int) ($v164615762 Int) ($l64515662 Int) ($l64515750 Int) ($k64315660 Int) ($v565015667 Int) ($n64115757 Int) ($v364815753 Int) ($j64415749 Int) ($j64415760 Int) ($v665115767 Int) ($v264715752 Int) ($v565015755 Int) ($v264715763 Int) ($v364815764 Int) ($k64315759 Int) ($v464915666 Int) ($i64215747 Int) ($v464915765 Int) ($v665115668 Int) ($j64415661 Int) ($v464915754 Int) ($i64215758 Int) ($i64215659 Int) ($v164615751 Int) ($v665115756 Int) ($k64315748 Int) ($n64115746 Int))
    (=> (and ($main_sum224 $n64115746 $i64215747 $k64315748 $j64415749 (+ $l64515750 1) $v164615751 $v264715752 $v364815753 $v464915754 $v565015755 $v665115756 $n64115757 $i64215758 $k64315759 $j64415760 $l64515761 $v164615762 $v264715763 $v364815764 $v464915765 $v565015766 $v665115767)
             (__VERIFIER_assert (ite (= (+ (+ (+ (+ (+ (+ (+ (+ $i64215747 $j64415749) $k64315748) $v164615751) $v264715752) $v364815753) $v464915754) $v565015755) $v665115756) (+ $l64515750 1)) 1 0))
             ($main_if659 $n64115658 $i64215659 $k64315660 $j64415661 $l64515662 $v164615663 $v264715664 $v364815665 $v464915666 $v565015667 $v665115668 $n64115746 $i64215747 $k64315748 $j64415749 $l64515750 $v164615751 $v264715752 $v364815753 $v464915754 $v565015755 $v665115756))
        ($main_sum224 $n64115658 $i64215659 $k64315660 $j64415661 $l64515662 $v164615663 $v264715664 $v364815665 $v464915666 $v565015667 $v665115668 $n64115757 $i64215758 $k64315759 $j64415760 $l64515761 $v164615762 $v264715763 $v364815764 $v464915765 $v565015766 $v665115767))))

(check-sat)
